NAME : XML100_3166_20
DIMENSION : 101
NB_CLUSTERS : 4
CLUSTERING_ALG : KMedoids
CLUSTERING_PARAMS : k(3)
CLUSTERS
1 0
2 2 32 33 34 35 37 40 41 42 44 46 53 56 61 64 67 69 78 79 88 91 96 97
3 1 3 5 7 8 9 10 14 17 18 19 21 22 23 26 27 28 30 36 38 43 47 48 50 51 52 54 57 58 60 63 71 72 73 75 76 77 82 84 86 89 90 94 99
4 4 6 11 12 13 15 16 20 24 25 29 31 39 45 49 55 59 62 65 66 68 70 74 80 81 83 85 87 92 93 95 98 100
EOF